100
100
3000 3000 3000 3000 3000 3000 3000 3000 3000 3000 3000 3000 3000 3000 3000 3000 3000 3000 3000 3000 3000 3000 3000 3000 3000 3000 3000 3000 3000 3000 3000 3000 3000 3000 3000 3000 3000 3000 3000 3000 3000 3000 3000 3000 3000 3000 3000 3000 3000 3000 3000 3000 3000 3000 3000 3000 3000 3000 3000 3000 3000 3000 3000 3000 3000 3000 3000 3000 3000 3000 3000 3000 3000 3000 3000 3000 3000 3000 3000 3000 3000 3000 3000 3000 3000 3000 3000 3000 3000 3000 3000 3000 3000 3000 3000 3000 3000 3000 3000 3000
0 3 2
0 8 3
0 22 2
0 23 0
0 33 2
0 37 4
0 60 4
0 69 0
0 86 2
0 89 0
1 0 1
1 39 0
1 47 3
1 60 1
1 69 1
1 76 3
1 85 0
1 94 3
1 95 2
1 98 1
2 0 2
2 19 3
2 44 3
2 58 3
2 65 3
2 71 0
2 78 2
2 85 3
2 89 2
2 91 3
3 25 4
3 42 2
3 44 1
3 46 1
3 59 2
3 74 3
3 92 1
3 95 2
3 97 3
3 99 4
4 19 0
4 30 1
4 31 4
4 32 2
4 36 1
4 40 0
4 49 3
4 72 4
4 73 1
4 83 1
5 5 1
5 15 4
5 17 3
5 39 1
5 48 3
5 50 3
5 66 1
5 78 4
5 80 3
5 85 1
6 0 1
6 12 3
6 45 1
6 46 3
6 50 1
6 51 4
6 53 1
6 69 0
6 72 4
6 76 4
7 21 3
7 26 0
7 29 0
7 40 4
7 50 0
7 54 0
7 62 1
7 63 2
7 75 1
7 81 4
8 3 2
8 5 2
8 6 4
8 7 3
8 24 2
8 34 3
8 44 4
8 48 0
8 73 2
8 81 1
9 18 4
9 21 2
9 37 0
9 52 4
9 55 0
9 57 0
9 74 4
9 86 1
9 91 3
9 99 4
10 16 1
10 39 4
10 43 4
10 56 1
10 70 2
10 88 0
10 93 1
10 94 2
10 95 2
10 96 4
11 9 2
11 26 3
11 28 1
11 34 0
11 36 3
11 38 3
11 76 2
11 80 2
11 89 0
11 91 1
12 3 2
12 14 2
12 28 4
12 29 1
12 31 0
12 50 2
12 54 3
12 76 1
12 90 1
12 92 3
13 1 3
13 26 3
13 27 2
13 29 1
13 35 3
13 38 4
13 55 3
13 70 1
13 72 1
13 85 3
14 2 3
14 4 2
14 13 0
14 15 3
14 21 0
14 46 1
14 53 0
14 71 3
14 83 2
14 96 2
15 12 3
15 19 3
15 23 4
15 38 4
15 48 0
15 56 3
15 57 0
15 68 1
15 76 3
15 77 0
16 0 1
16 2 2
16 7 4
16 34 3
16 51 2
16 57 3
16 58 1
16 73 1
16 76 3
16 82 0
17 0 1
17 4 2
17 5 4
17 15 3
17 55 2
17 63 0
17 86 4
17 97 0
17 98 2
17 99 2
18 15 2
18 22 2
18 25 1
18 33 1
18 39 2
18 62 3
18 79 2
18 80 0
18 88 2
18 94 3
19 32 1
19 34 0
19 45 1
19 52 2
19 53 0
19 67 3
19 75 0
19 80 4
19 81 1
19 92 1
20 4 2
20 5 1
20 23 4
20 30 2
20 37 1
20 43 4
20 48 0
20 52 2
20 59 1
20 64 4
21 9 4
21 11 3
21 12 2
21 14 3
21 33 1
21 36 2
21 37 2
21 38 0
21 66 3
21 67 2
22 19 1
22 36 2
22 41 2
22 44 1
22 50 1
22 58 2
22 65 3
22 67 1
22 75 3
22 78 0
23 4 2
23 5 4
23 31 4
23 36 0
23 39 1
23 40 1
23 55 1
23 57 2
23 60 4
23 70 0
24 24 0
24 25 1
24 28 0
24 29 1
24 39 0
24 61 2
24 76 1
24 92 1
24 96 1
24 98 2
25 2 3
25 7 3
25 19 1
25 29 3
25 44 4
25 61 4
25 66 4
25 77 2
25 78 0
25 79 3
26 19 0
26 26 0
26 33 0
26 35 0
26 38 3
26 49 3
26 70 4
26 73 4
26 77 1
26 84 2
27 14 3
27 20 3
27 27 2
27 28 2
27 39 0
27 44 1
27 46 4
27 62 1
27 68 3
27 77 0
28 18 3
28 19 2
28 41 3
28 49 4
28 51 4
28 56 3
28 58 4
28 60 3
28 65 3
28 73 3
29 0 0
29 3 1
29 10 0
29 20 0
29 30 2
29 62 1
29 78 1
29 88 4
29 91 2
29 92 1
30 7 1
30 14 4
30 47 0
30 48 4
30 61 3
30 81 2
30 82 0
30 89 4
30 90 3
30 97 1
31 9 0
31 10 4
31 17 1
31 20 1
31 25 3
31 28 1
31 34 3
31 47 1
31 59 0
31 61 2
32 1 3
32 16 0
32 21 4
32 45 0
32 59 3
32 73 3
32 86 4
32 88 1
32 96 3
32 97 2
33 4 3
33 11 2
33 19 2
33 22 3
33 40 1
33 46 1
33 49 1
33 62 4
33 72 2
33 93 3
34 14 3
34 20 4
34 54 3
34 61 2
34 70 4
34 88 0
34 92 2
34 95 4
34 97 2
34 99 1
35 8 1
35 27 3
35 32 4
35 35 2
35 37 3
35 40 0
35 41 1
35 43 2
35 68 4
35 69 4
36 0 1
36 10 3
36 11 4
36 16 3
36 21 4
36 25 1
36 51 1
36 61 3
36 62 1
36 63 1
37 0 1
37 8 1
37 9 3
37 11 2
37 30 2
37 32 3
37 35 3
37 43 3
37 65 0
37 92 1
38 4 3
38 9 0
38 10 2
38 19 2
38 26 3
38 27 1
38 35 4
38 38 3
38 66 0
38 81 2
39 7 4
39 11 3
39 19 1
39 20 4
39 21 0
39 22 4
39 26 2
39 27 4
39 29 4
39 54 1
40 2 4
40 9 0
40 20 2
40 55 3
40 70 4
40 72 2
40 73 2
40 77 3
40 80 0
40 95 4
41 18 2
41 25 3
41 33 3
41 39 0
41 56 4
41 67 1
41 75 2
41 79 2
41 84 2
41 90 3
42 6 1
42 13 1
42 16 3
42 36 4
42 53 3
42 56 3
42 84 1
42 86 1
42 88 1
42 96 0
43 2 3
43 8 2
43 13 2
43 17 0
43 22 3
43 33 3
43 37 2
43 43 2
43 51 0
43 60 0
44 1 0
44 11 1
44 20 3
44 31 4
44 40 2
44 53 4
44 63 0
44 67 4
44 71 1
44 74 2
45 15 3
45 32 0
45 44 4
45 50 4
45 60 0
45 66 2
45 69 0
45 75 3
45 77 0
45 84 3
46 9 3
46 11 4
46 18 0
46 23 3
46 50 4
46 53 4
46 59 4
46 69 0
46 85 4
46 89 3
47 16 0
47 17 1
47 29 3
47 54 2
47 55 1
47 64 0
47 86 3
47 93 1
47 94 1
47 96 3
48 3 2
48 5 4
48 15 2
48 18 2
48 50 2
48 64 2
48 71 2
48 74 4
48 79 1
48 91 3
49 6 3
49 7 3
49 16 4
49 22 2
49 28 3
49 45 0
49 61 3
49 74 4
49 78 1
49 90 3
50 5 3
50 6 3
50 14 1
50 17 1
50 23 1
50 31 0
50 33 1
50 45 3
50 50 1
50 55 1
51 1 1
51 5 0
51 42 1
51 52 4
51 60 4
51 76 3
51 79 2
51 81 3
51 84 1
51 87 2
52 10 1
52 13 1
52 14 4
52 24 1
52 55 2
52 56 0
52 58 2
52 88 1
52 90 4
52 94 1
53 2 4
53 10 0
53 14 3
53 16 4
53 30 3
53 31 3
53 43 2
53 47 4
53 52 4
53 93 2
54 43 0
54 53 3
54 59 1
54 68 0
54 72 1
54 75 3
54 76 1
54 79 4
54 90 1
54 91 3
55 18 4
55 23 1
55 30 3
55 36 1
55 44 0
55 68 1
55 77 0
55 82 3
55 87 3
55 89 4
56 8 3
56 21 1
56 27 2
56 29 2
56 37 1
56 41 3
56 46 1
56 51 1
56 56 4
56 84 3
57 1 4
57 6 4
57 16 1
57 41 1
57 44 0
57 82 3
57 83 3
57 84 3
57 90 2
57 94 0
58 1 4
58 7 3
58 8 0
58 15 2
58 18 4
58 28 1
58 30 1
58 37 1
58 40 1
58 46 2
59 3 0
59 9 0
59 24 2
59 38 0
59 48 4
59 56 1
59 59 0
59 66 3
59 72 4
59 80 3
60 6 3
60 34 3
60 58 3
60 74 1
60 80 3
60 82 1
60 86 1
60 89 4
60 92 4
60 94 2
61 13 4
61 16 3
61 30 3
61 35 1
61 38 4
61 39 2
61 41 3
61 42 4
61 87 0
61 91 1
62 2 0
62 12 0
62 25 3
62 67 2
62 74 3
62 75 1
62 82 3
62 93 1
62 98 2
62 99 0
63 12 3
63 13 3
63 15 2
63 22 4
63 26 2
63 34 1
63 43 1
63 62 0
63 71 3
63 78 4
64 9 4
64 33 1
64 35 0
64 40 3
64 49 3
64 55 1
64 81 2
64 82 1
64 83 4
64 93 1
65 8 4
65 11 4
65 12 0
65 21 4
65 45 2
65 66 1
65 67 1
65 71 4
65 78 2
65 83 1
66 20 3
66 43 1
66 45 2
66 57 2
66 60 0
66 66 2
66 88 0
66 90 2
66 95 1
66 96 4
67 0 3
67 4 3
67 24 0
67 47 0
67 51 2
67 60 0
67 68 1
67 70 4
67 73 0
67 74 3
68 5 2
68 54 1
68 68 3
68 70 4
68 86 3
68 87 4
68 96 4
68 97 4
68 98 1
68 99 1
69 15 2
69 22 3
69 24 1
69 32 0
69 52 2
69 83 0
69 87 2
69 92 1
69 93 1
69 97 2
70 1 0
70 14 0
70 35 2
70 36 2
70 41 4
70 48 3
70 53 0
70 62 2
70 69 1
70 71 3
71 24 0
71 48 1
71 50 1
71 70 3
71 72 1
71 75 2
71 79 3
71 82 3
71 83 0
71 98 1
72 7 4
72 17 2
72 32 4
72 41 0
72 52 4
72 68 3
72 69 2
72 87 1
72 89 0
72 95 4
73 6 2
73 8 3
73 35 2
73 41 0
73 64 1
73 65 2
73 66 3
73 83 3
73 86 1
73 87 0
74 2 4
74 13 2
74 14 4
74 42 4
74 67 3
74 80 3
74 84 0
74 87 1
74 91 2
74 93 4
75 2 2
75 12 4
75 13 1
75 22 4
75 23 2
75 31 0
75 34 4
75 42 2
75 72 2
75 77 1
76 3 2
76 21 2
76 25 4
76 62 0
76 64 2
76 72 4
76 73 4
76 92 4
76 98 0
76 99 4
77 4 3
77 8 0
77 24 4
77 29 1
77 43 0
77 55 2
77 57 3
77 79 1
77 84 0
77 95 3
78 10 4
78 27 2
78 32 4
78 46 1
78 49 0
78 54 0
78 65 4
78 82 2
78 83 1
78 85 3
79 12 3
79 25 0
79 31 2
79 38 4
79 58 0
79 64 3
79 71 3
79 81 0
79 83 1
79 90 2
80 26 1
80 31 4
80 34 2
80 36 3
80 42 1
80 58 2
80 59 3
80 65 1
80 88 4
80 89 3
81 11 3
81 41 3
81 48 4
81 57 2
81 58 1
81 63 0
81 95 2
81 97 1
81 98 4
81 99 4
82 12 3
82 18 1
82 21 4
82 22 1
82 31 0
82 46 2
82 47 4
82 51 2
82 75 1
82 78 1
83 3 1
83 5 3
83 7 3
83 17 4
83 26 1
83 34 3
83 57 3
83 78 3
83 81 4
83 88 0
84 13 2
84 40 1
84 62 2
84 71 4
84 76 0
84 87 2
84 96 2
84 97 0
84 98 1
84 99 2
85 23 1
85 30 1
85 37 2
85 42 3
85 54 0
85 68 1
85 85 4
85 89 3
85 90 3
85 98 3
86 1 2
86 24 3
86 28 1
86 52 2
86 59 3
86 61 2
86 63 2
86 66 2
86 82 3
86 84 2
87 3 4
87 7 2
87 9 3
87 16 3
87 18 2
87 20 0
87 25 0
87 44 0
87 58 3
87 63 2
88 1 0
88 18 1
88 23 3
88 28 2
88 32 1
88 37 2
88 47 0
88 64 4
88 65 1
88 87 3
89 13 4
89 23 4
89 27 1
89 39 0
89 42 4
89 52 1
89 53 2
89 54 4
89 57 4
89 63 2
90 27 4
90 59 2
90 65 3
90 67 0
90 73 0
90 74 0
90 80 2
90 85 4
90 91 3
90 94 0
91 4 0
91 6 0
91 17 4
91 30 1
91 45 0
91 47 3
91 51 4
91 53 0
91 54 0
91 56 3
92 0 3
92 1 3
92 35 3
92 42 4
92 48 0
92 60 2
92 61 4
92 63 2
92 67 4
92 77 3
93 3 3
93 15 1
93 26 0
93 33 3
93 47 3
93 49 3
93 61 2
93 69 3
93 86 0
93 93 2
94 8 0
94 29 0
94 38 0
94 64 3
94 70 1
94 71 2
94 80 1
94 85 4
94 94 2
94 96 4
95 6 2
95 10 0
95 17 4
95 36 0
95 45 1
95 47 3
95 49 2
95 52 3
95 57 0
95 65 0
96 2 3
96 6 1
96 10 2
96 27 3
96 40 2
96 45 0
96 49 4
96 74 3
96 81 3
96 85 1
97 28 3
97 32 1
97 42 1
97 63 4
97 64 1
97 69 0
97 75 1
97 79 3
97 93 1
97 95 0
98 10 3
98 11 4
98 12 2
98 17 1
98 24 3
98 33 4
98 46 3
98 49 4
98 51 0
98 56 3
99 4 3
99 20 4
99 64 3
99 68 4
99 77 0
99 79 3
99 91 0
99 94 3
99 97 2
99 99 1
